File: D:\ML4VRP2024\Instances\CVRP\json\X-n110-k13.json exists.
Route #1: 14 1 90 16 70 44 29 
Route #2: 2 43 93 99 65 36 64 
Route #3: 3 38 105 32 79 78 74 20 92 
Route #4: 6 18 84 24 4 87 26 53 15 77 
Route #5: 91 5 46 51 85 11 98 66 
Route #6: 49 40 47 86 73 35 7 48 
Route #7: 19 58 12 63 10 100 62 8 72 
Route #8: 109 69 25 103 101 33 9 102 56 
Route #9: 23 13 57 82 107 37 94 81 
Route #10: 52 50 39 28 31 17 27 59 95 
Route #11: 68 41 54 96 88 21 75 
Route #12: 71 80 30 55 76 83 22 61 60 104 
Route #13: 108 89 45 34 67 106 97 42 
